assets/logs/6_10x10_clingo/6_10x10_clingo.solution.log

-----------------------------------------
| 65|  3| 69| 72| 77|  0| 73| 68| 81| 64|
-----------------------------------------
|  0| 74| 63|  5| 71| 70| 79| 62| 36| 85|
-----------------------------------------
|  1| 67|  2| 12| 61| 75|  0| 83| 66| 32|
-----------------------------------------
| 76| 14|  7|  0|  4| 10| 60| 34| 87| 38|
-----------------------------------------
|  9| 27| 13|  8| 58| 59| 46| 40| 30| 55|
-----------------------------------------
| 15| 78| 16| 29| 44|  6| 28| 57| 48| 89|
-----------------------------------------
| 18| 11| 25| 80| 26| 56| 42| 88| 53|  0|
-----------------------------------------
| 23| 17| 31| 37|  0| 90| 47| 54| 43| 50|
-----------------------------------------
| 33| 20|  0| 19| 82| 24| 41| 51| 86|  0|
-----------------------------------------
|  0| 21| 35| 22| 39| 49| 84| 45| 52|  0|
-----------------------------------------

| n = 10 | k = 7 | coverage = 96, 96.0%
 Time 300.001
 Name 6_10x10_clingo

