assets/logs/6_10x10_clingo/6_10x10_clingo.log
clingo version 5.4.0
Reading from ...ts/logs/6_10x10_clingo/knights_tour.lp ...
Solving...
Answer: 1
occ(1,3,7) occ(1,2,1) occ(1,7,10) occ(1,1,6) occ(1,9,3) occ(1,8,5) occ(1,4,4) occ(2,3,1) occ(3,3,3) coverage(6)
Optimization: -6
Answer: 2
occ(1,3,7) occ(1,2,1) occ(1,7,10) occ(1,1,6) occ(1,9,3) occ(1,8,5) occ(1,4,4) occ(2,3,1) occ(3,3,3) coverage(74) occ(6,1,1) occ(9,1,4) occ(10,1,3) occ(49,1,8) occ(4,2,3) occ(7,2,2) occ(11,2,6) occ(26,2,4) occ(47,2,10) occ(8,3,2) occ(12,3,4) occ(22,3,5) occ(28,3,6) occ(32,3,8) occ(51,3,9) occ(5,4,1) occ(13,4,5) occ(14,4,2) occ(24,4,3) occ(34,4,10) occ(45,4,9) occ(69,4,7) occ(17,5,2) occ(20,5,4) occ(30,5,7) occ(41,5,8) occ(53,5,10) occ(66,5,3) occ(71,5,9) occ(75,5,5) occ(15,6,4) occ(16,6,3) occ(23,6,2) occ(36,6,9) occ(39,6,6) occ(43,6,10) occ(60,6,5) occ(64,6,1) occ(67,6,8) occ(73,6,7) occ(18,7,5) occ(19,7,1) occ(37,7,8) occ(38,7,7) occ(55,7,9) occ(62,7,3) occ(65,7,6) occ(68,7,2) occ(77,7,4) occ(21,8,3) occ(25,8,1) occ(33,8,7) occ(46,8,4) occ(54,8,10) occ(58,8,6) occ(59,8,8) occ(79,8,2) occ(29,9,4) occ(35,9,9) occ(40,9,6) occ(44,9,2) occ(50,9,7) occ(56,9,8) occ(57,9,10) occ(63,9,5) occ(70,9,1) occ(27,10,2) occ(31,10,6) occ(42,10,4) occ(48,10,5) occ(52,10,9) occ(61,10,7) occ(72,10,3) occ(81,10,1)
Optimization: -74
Answer: 3
occ(1,3,7) occ(1,2,1) occ(1,7,10) occ(1,1,6) occ(1,9,3) occ(1,8,5) occ(1,4,4) occ(2,3,1) occ(3,3,3) coverage(75) occ(4,1,2) occ(15,1,5) occ(22,1,3) occ(26,1,7) occ(49,1,8) occ(6,2,4) occ(9,2,7) occ(17,2,3) occ(24,2,5) occ(28,2,9) occ(47,2,10) occ(7,3,5) occ(13,3,6) occ(20,3,2) occ(32,3,8) occ(51,3,9) occ(64,3,4) occ(8,4,3) occ(11,4,8) occ(19,4,2) occ(30,4,10) occ(45,4,9) occ(62,4,6) occ(5,5,4) occ(18,5,1) occ(34,5,7) occ(41,5,8) occ(53,5,10) occ(66,5,3) occ(67,5,5) occ(73,5,6) occ(10,6,2) occ(16,6,3) occ(21,6,1) occ(36,6,9) occ(39,6,6) occ(43,6,10) occ(60,6,5) occ(71,6,4) occ(14,7,1) occ(23,7,3) occ(37,7,8) occ(38,7,7) occ(55,7,9) occ(65,7,4) occ(68,7,2) occ(69,7,6) occ(12,8,3) occ(25,8,1) occ(33,8,7) occ(46,8,4) occ(54,8,10) occ(58,8,6) occ(59,8,8) occ(74,8,2) occ(29,9,4) occ(35,9,9) occ(40,9,6) occ(44,9,2) occ(50,9,7) occ(56,9,8) occ(57,9,10) occ(63,9,5) occ(70,9,1) occ(27,10,2) occ(31,10,6) occ(42,10,4) occ(48,10,5) occ(52,10,9) occ(61,10,7) occ(72,10,3) occ(76,10,1)
Optimization: -75
Answer: 4
occ(1,3,7) occ(1,2,1) occ(1,7,10) occ(1,1,6) occ(1,9,3) occ(1,8,5) occ(1,4,4) occ(2,3,1) occ(3,3,3) coverage(76) occ(4,1,2) occ(15,1,5) occ(22,1,3) occ(26,1,7) occ(49,1,8) occ(6,2,4) occ(9,2,7) occ(17,2,3) occ(24,2,5) occ(28,2,9) occ(47,2,10) occ(7,3,5) occ(13,3,6) occ(20,3,2) occ(32,3,8) occ(51,3,9) occ(64,3,4) occ(8,4,3) occ(11,4,8) occ(19,4,2) occ(30,4,10) occ(45,4,9) occ(62,4,6) occ(5,5,4) occ(18,5,1) occ(34,5,7) occ(41,5,8) occ(53,5,10) occ(66,5,3) occ(67,5,5) occ(73,5,6) occ(10,6,2) occ(16,6,3) occ(21,6,1) occ(36,6,9) occ(39,6,6) occ(43,6,10) occ(60,6,5) occ(71,6,4) occ(75,6,8) occ(14,7,1) occ(23,7,3) occ(37,7,8) occ(38,7,7) occ(55,7,9) occ(65,7,4) occ(68,7,2) occ(69,7,6) occ(12,8,3) occ(25,8,1) occ(33,8,7) occ(46,8,4) occ(54,8,10) occ(58,8,6) occ(59,8,8) occ(74,8,2) occ(29,9,4) occ(35,9,9) occ(40,9,6) occ(44,9,2) occ(50,9,7) occ(56,9,8) occ(57,9,10) occ(63,9,5) occ(70,9,1) occ(27,10,2) occ(31,10,6) occ(42,10,4) occ(48,10,5) occ(52,10,9) occ(61,10,7) occ(72,10,3)
Optimization: -76
Answer: 5
occ(1,3,7) occ(1,2,1) occ(1,7,10) occ(1,1,6) occ(1,9,3) occ(1,8,5) occ(1,4,4) occ(2,3,1) occ(3,3,3) coverage(77) occ(4,1,2) occ(15,1,5) occ(22,1,3) occ(26,1,7) occ(49,1,8) occ(6,2,4) occ(9,2,7) occ(17,2,3) occ(24,2,5) occ(28,2,9) occ(47,2,10) occ(7,3,5) occ(13,3,6) occ(20,3,2) occ(32,3,8) occ(51,3,9) occ(64,3,4) occ(8,4,3) occ(11,4,8) occ(19,4,2) occ(30,4,10) occ(45,4,9) occ(62,4,6) occ(5,5,4) occ(18,5,1) occ(34,5,7) occ(41,5,8) occ(53,5,10) occ(66,5,3) occ(67,5,5) occ(73,5,6) occ(10,6,2) occ(16,6,3) occ(21,6,1) occ(36,6,9) occ(39,6,6) occ(43,6,10) occ(60,6,5) occ(71,6,4) occ(75,6,8) occ(14,7,1) occ(23,7,3) occ(37,7,8) occ(38,7,7) occ(55,7,9) occ(65,7,4) occ(68,7,2) occ(69,7,6) occ(12,8,3) occ(25,8,1) occ(33,8,7) occ(46,8,4) occ(54,8,10) occ(58,8,6) occ(59,8,8) occ(74,8,2) occ(29,9,4) occ(35,9,9) occ(40,9,6) occ(44,9,2) occ(50,9,7) occ(56,9,8) occ(57,9,10) occ(63,9,5) occ(70,9,1) occ(27,10,2) occ(31,10,6) occ(42,10,4) occ(48,10,5) occ(52,10,9) occ(61,10,7) occ(72,10,3) occ(76,10,1)
Optimization: -77
Answer: 6
occ(1,3,7) occ(1,2,1) occ(1,7,10) occ(1,1,6) occ(1,9,3) occ(1,8,5) occ(1,4,4) occ(2,3,1) occ(3,3,3) coverage(79) occ(12,1,4) occ(15,1,5) occ(22,1,3) occ(26,1,7) occ(49,1,8) occ(9,2,7) occ(10,2,2) occ(14,2,6) occ(17,2,3) occ(18,2,4) occ(24,2,5) occ(28,2,9) occ(47,2,10) occ(7,3,5) occ(13,3,6) occ(20,3,2) occ(32,3,8) occ(51,3,9) occ(64,3,4) occ(4,4,3) occ(8,4,1) occ(11,4,8) occ(16,4,5) occ(19,4,2) occ(30,4,10) occ(45,4,9) occ(62,4,6) occ(77,4,7) occ(5,5,4) occ(34,5,7) occ(41,5,8) occ(53,5,10) occ(66,5,3) occ(67,5,5) occ(73,5,6) occ(78,5,1) occ(6,6,2) occ(21,6,1) occ(36,6,9) occ(39,6,6) occ(43,6,10) occ(60,6,5) occ(71,6,4) occ(75,6,8) occ(76,6,3) occ(23,7,3) occ(37,7,8) occ(38,7,7) occ(55,7,9) occ(65,7,4) occ(68,7,2) occ(69,7,6) occ(25,8,1) occ(33,8,7) occ(46,8,4) occ(54,8,10) occ(58,8,6) occ(59,8,8) occ(74,8,2) occ(29,9,4) occ(35,9,9) occ(40,9,6) occ(44,9,2) occ(50,9,7) occ(56,9,8) occ(57,9,10) occ(63,9,5) occ(70,9,1) occ(27,10,2) occ(31,10,6) occ(42,10,4) occ(48,10,5) occ(52,10,9) occ(61,10,7) occ(72,10,3)
Optimization: -79
Answer: 7
occ(1,3,7) occ(1,2,1) occ(1,7,10) occ(1,1,6) occ(1,9,3) occ(1,8,5) occ(1,4,4) occ(2,3,1) occ(3,3,3) coverage(80) occ(12,1,4) occ(15,1,5) occ(22,1,3) occ(26,1,7) occ(49,1,8) occ(9,2,7) occ(10,2,2) occ(14,2,6) occ(17,2,3) occ(18,2,4) occ(24,2,5) occ(28,2,9) occ(47,2,10) occ(79,2,8) occ(7,3,5) occ(13,3,6) occ(20,3,2) occ(32,3,8) occ(51,3,9) occ(64,3,4) occ(4,4,3) occ(8,4,1) occ(11,4,8) occ(16,4,5) occ(19,4,2) occ(30,4,10) occ(45,4,9) occ(62,4,6) occ(77,4,7) occ(5,5,4) occ(34,5,7) occ(41,5,8) occ(53,5,10) occ(66,5,3) occ(67,5,5) occ(73,5,6) occ(78,5,1) occ(6,6,2) occ(21,6,1) occ(36,6,9) occ(39,6,6) occ(43,6,10) occ(60,6,5) occ(71,6,4) occ(75,6,8) occ(76,6,3) occ(23,7,3) occ(37,7,8) occ(38,7,7) occ(55,7,9) occ(65,7,4) occ(68,7,2) occ(69,7,6) occ(25,8,1) occ(33,8,7) occ(46,8,4) occ(54,8,10) occ(58,8,6) occ(59,8,8) occ(74,8,2) occ(29,9,4) occ(35,9,9) occ(40,9,6) occ(44,9,2) occ(50,9,7) occ(56,9,8) occ(57,9,10) occ(63,9,5) occ(70,9,1) occ(27,10,2) occ(31,10,6) occ(42,10,4) occ(48,10,5) occ(52,10,9) occ(61,10,7) occ(72,10,3)
Optimization: -80
Answer: 8
occ(1,3,7) occ(1,2,1) occ(1,7,10) occ(1,1,6) occ(1,9,3) occ(1,8,5) occ(1,4,4) occ(2,3,1) occ(3,3,3) coverage(81) occ(12,1,4) occ(15,1,5) occ(22,1,3) occ(26,1,7) occ(49,1,8) occ(9,2,7) occ(10,2,2) occ(14,2,6) occ(17,2,3) occ(18,2,4) occ(24,2,5) occ(28,2,9) occ(47,2,10) occ(79,2,8) occ(7,3,5) occ(13,3,6) occ(20,3,2) occ(32,3,8) occ(51,3,9) occ(4,4,3) occ(8,4,1) occ(11,4,8) occ(16,4,5) occ(19,4,2) occ(30,4,10) occ(45,4,9) occ(62,4,6) occ(77,4,7) occ(5,5,4) occ(34,5,7) occ(41,5,8) occ(53,5,10) occ(67,5,5) occ(73,5,6) occ(78,5,1) occ(6,6,2) occ(21,6,1) occ(36,6,9) occ(39,6,6) occ(43,6,10) occ(60,6,5) occ(64,6,7) occ(71,6,4) occ(75,6,8) occ(76,6,3) occ(23,7,3) occ(37,7,8) occ(38,7,7) occ(55,7,9) occ(65,7,4) occ(66,7,5) occ(69,7,6) occ(80,7,2) occ(25,8,1) occ(33,8,7) occ(46,8,4) occ(54,8,10) occ(58,8,6) occ(59,8,8) occ(68,8,3) occ(74,8,2) occ(29,9,4) occ(35,9,9) occ(40,9,6) occ(44,9,2) occ(50,9,7) occ(56,9,8) occ(57,9,10) occ(63,9,5) occ(70,9,1) occ(27,10,2) occ(31,10,6) occ(42,10,4) occ(48,10,5) occ(52,10,9) occ(61,10,7) occ(72,10,3)
Optimization: -81
Answer: 9
occ(1,3,7) occ(1,2,1) occ(1,7,10) occ(1,1,6) occ(1,9,3) occ(1,8,5) occ(1,4,4) occ(2,3,1) occ(3,3,3) coverage(82) occ(12,1,4) occ(15,1,5) occ(22,1,3) occ(26,1,7) occ(49,1,8) occ(81,1,10) occ(9,2,7) occ(10,2,2) occ(14,2,6) occ(17,2,3) occ(18,2,4) occ(24,2,5) occ(28,2,9) occ(47,2,10) occ(79,2,8) occ(7,3,5) occ(13,3,6) occ(20,3,2) occ(32,3,8) occ(51,3,9) occ(4,4,3) occ(8,4,1) occ(11,4,8) occ(16,4,5) occ(19,4,2) occ(30,4,10) occ(45,4,9) occ(62,4,6) occ(77,4,7) occ(5,5,4) occ(34,5,7) occ(41,5,8) occ(53,5,10) occ(67,5,5) occ(73,5,6) occ(78,5,1) occ(6,6,2) occ(21,6,1) occ(36,6,9) occ(39,6,6) occ(43,6,10) occ(60,6,5) occ(64,6,7) occ(71,6,4) occ(75,6,8) occ(76,6,3) occ(23,7,3) occ(37,7,8) occ(38,7,7) occ(55,7,9) occ(65,7,4) occ(66,7,5) occ(69,7,6) occ(80,7,2) occ(25,8,1) occ(33,8,7) occ(46,8,4) occ(54,8,10) occ(58,8,6) occ(59,8,8) occ(68,8,3) occ(74,8,2) occ(29,9,4) occ(35,9,9) occ(40,9,6) occ(44,9,2) occ(50,9,7) occ(56,9,8) occ(57,9,10) occ(63,9,5) occ(70,9,1) occ(27,10,2) occ(31,10,6) occ(42,10,4) occ(48,10,5) occ(52,10,9) occ(61,10,7) occ(72,10,3)
Optimization: -82
Answer: 10
occ(1,3,7) occ(1,2,1) occ(1,7,10) occ(1,1,6) occ(1,9,3) occ(1,8,5) occ(1,4,4) occ(2,3,1) occ(3,3,3) coverage(83) occ(12,1,4) occ(15,1,5) occ(22,1,3) occ(26,1,7) occ(49,1,8) occ(81,1,10) occ(9,2,7) occ(10,2,2) occ(14,2,6) occ(17,2,3) occ(18,2,4) occ(24,2,5) occ(28,2,9) occ(47,2,10) occ(79,2,8) occ(7,3,5) occ(13,3,6) occ(20,3,2) occ(32,3,8) occ(51,3,9) occ(4,4,3) occ(8,4,1) occ(11,4,8) occ(16,4,5) occ(19,4,2) occ(30,4,10) occ(45,4,9) occ(62,4,6) occ(77,4,7) occ(5,5,4) occ(34,5,7) occ(41,5,8) occ(53,5,10) occ(67,5,5) occ(73,5,6) occ(78,5,1) occ(82,5,3) occ(6,6,2) occ(21,6,1) occ(36,6,9) occ(39,6,6) occ(43,6,10) occ(60,6,5) occ(64,6,7) occ(71,6,4) occ(75,6,8) occ(76,6,3) occ(23,7,3) occ(37,7,8) occ(38,7,7) occ(55,7,9) occ(65,7,4) occ(66,7,5) occ(69,7,6) occ(80,7,2) occ(25,8,1) occ(33,8,7) occ(46,8,4) occ(54,8,10) occ(58,8,6) occ(59,8,8) occ(68,8,3) occ(74,8,2) occ(29,9,4) occ(35,9,9) occ(40,9,6) occ(44,9,2) occ(50,9,7) occ(56,9,8) occ(57,9,10) occ(63,9,5) occ(70,9,1) occ(27,10,2) occ(31,10,6) occ(42,10,4) occ(48,10,5) occ(52,10,9) occ(61,10,7) occ(72,10,3)
Optimization: -83
Answer: 11
occ(1,3,7) occ(1,2,1) occ(1,7,10) occ(1,1,6) occ(1,9,3) occ(1,8,5) occ(1,4,4) occ(2,3,1) occ(3,3,3) coverage(84) occ(12,1,4) occ(15,1,5) occ(22,1,3) occ(26,1,7) occ(49,1,8) occ(9,2,7) occ(10,2,2) occ(14,2,6) occ(17,2,3) occ(18,2,4) occ(24,2,5) occ(28,2,9) occ(47,2,10) occ(79,2,8) occ(7,3,5) occ(13,3,6) occ(20,3,2) occ(32,3,8) occ(51,3,9) occ(81,3,10) occ(4,4,3) occ(8,4,1) occ(11,4,8) occ(16,4,5) occ(19,4,2) occ(30,4,10) occ(45,4,9) occ(62,4,6) occ(77,4,7) occ(5,5,4) occ(34,5,7) occ(41,5,8) occ(53,5,10) occ(67,5,5) occ(73,5,6) occ(78,5,1) occ(82,5,3) occ(83,5,9) occ(6,6,2) occ(21,6,1) occ(36,6,9) occ(39,6,6) occ(43,6,10) occ(60,6,5) occ(64,6,7) occ(71,6,4) occ(75,6,8) occ(76,6,3) occ(23,7,3) occ(37,7,8) occ(38,7,7) occ(55,7,9) occ(65,7,4) occ(66,7,5) occ(69,7,6) occ(80,7,2) occ(25,8,1) occ(33,8,7) occ(46,8,4) occ(54,8,10) occ(58,8,6) occ(59,8,8) occ(68,8,3) occ(74,8,2) occ(29,9,4) occ(35,9,9) occ(40,9,6) occ(44,9,2) occ(50,9,7) occ(56,9,8) occ(57,9,10) occ(63,9,5) occ(70,9,1) occ(27,10,2) occ(31,10,6) occ(42,10,4) occ(48,10,5) occ(52,10,9) occ(61,10,7) occ(72,10,3)
Optimization: -84
Answer: 12
occ(1,3,7) occ(1,2,1) occ(1,7,10) occ(1,1,6) occ(1,9,3) occ(1,8,5) occ(1,4,4) occ(2,3,1) occ(3,3,3) coverage(85) occ(12,1,4) occ(15,1,5) occ(22,1,3) occ(26,1,7) occ(49,1,8) occ(9,2,7) occ(10,2,2) occ(14,2,6) occ(17,2,3) occ(18,2,4) occ(24,2,5) occ(28,2,9) occ(47,2,10) occ(79,2,8) occ(7,3,5) occ(13,3,6) occ(20,3,2) occ(32,3,8) occ(51,3,9) occ(81,3,10) occ(84,3,4) occ(4,4,3) occ(8,4,1) occ(11,4,8) occ(16,4,5) occ(19,4,2) occ(30,4,10) occ(45,4,9) occ(62,4,6) occ(77,4,7) occ(5,5,4) occ(34,5,7) occ(41,5,8) occ(53,5,10) occ(67,5,5) occ(73,5,6) occ(78,5,1) occ(82,5,3) occ(83,5,9) occ(6,6,2) occ(21,6,1) occ(36,6,9) occ(39,6,6) occ(43,6,10) occ(60,6,5) occ(64,6,7) occ(71,6,4) occ(75,6,8) occ(76,6,3) occ(23,7,3) occ(37,7,8) occ(38,7,7) occ(55,7,9) occ(65,7,4) occ(66,7,5) occ(69,7,6) occ(80,7,2) occ(25,8,1) occ(33,8,7) occ(46,8,4) occ(54,8,10) occ(58,8,6) occ(59,8,8) occ(68,8,3) occ(74,8,2) occ(29,9,4) occ(35,9,9) occ(40,9,6) occ(44,9,2) occ(50,9,7) occ(56,9,8) occ(57,9,10) occ(63,9,5) occ(70,9,1) occ(27,10,2) occ(31,10,6) occ(42,10,4) occ(48,10,5) occ(52,10,9) occ(61,10,7) occ(72,10,3)
Optimization: -85
Answer: 13
occ(1,3,7) occ(1,2,1) occ(1,7,10) occ(1,1,6) occ(1,9,3) occ(1,8,5) occ(1,4,4) occ(2,3,1) occ(3,3,3) coverage(86) occ(5,1,2) occ(11,1,1) occ(15,1,5) occ(21,1,10) occ(28,1,8) occ(31,1,9) occ(41,1,4) occ(7,2,4) occ(13,2,3) occ(19,2,8) occ(26,2,10) occ(29,2,7) occ(30,2,6) occ(43,2,2) occ(9,3,2) occ(17,3,6) occ(23,3,9) occ(32,3,8) occ(33,3,10) occ(39,3,5) occ(68,3,4) occ(24,4,9) occ(27,4,8) occ(36,4,5) occ(37,4,7) occ(42,4,6) occ(45,4,1) occ(66,4,2) occ(75,4,10) occ(4,5,2) occ(25,5,10) occ(34,5,7) occ(35,5,9) occ(38,5,3) occ(44,5,4) occ(70,5,5) occ(77,5,8) occ(80,5,6) occ(8,6,3) occ(22,6,8) occ(40,6,5) occ(46,6,6) occ(47,6,2) occ(64,6,1) occ(72,6,7) occ(73,6,9) occ(79,6,10) occ(82,6,4) occ(6,7,1) occ(10,7,5) occ(16,7,8) occ(20,7,6) occ(48,7,4) occ(62,7,3) occ(74,7,9) occ(78,7,7) occ(84,7,2) occ(12,8,7) occ(49,8,1) occ(50,8,6) occ(54,8,4) occ(55,8,2) occ(61,8,3) occ(67,8,8) occ(71,8,10) occ(81,8,9) occ(14,9,9) occ(18,9,7) occ(53,9,4) occ(56,9,6) occ(59,9,1) occ(60,9,2) occ(63,9,5) occ(76,9,8) occ(85,9,10) occ(51,10,2) occ(52,10,5) occ(57,10,3) occ(58,10,4) occ(65,10,7) occ(69,10,9) occ(83,10,8)
Optimization: -86
Answer: 14
occ(1,3,7) occ(1,2,1) occ(1,7,10) occ(1,1,6) occ(1,9,3) occ(1,8,5) occ(1,4,4) occ(2,3,1) occ(3,3,3) coverage(88) occ(33,1,4) occ(42,1,7) occ(50,1,9) occ(55,1,1) occ(59,1,5) occ(84,1,8) occ(35,2,2) occ(38,2,8) occ(44,2,9) occ(52,2,7) occ(57,2,3) occ(82,2,10) occ(86,2,6) occ(13,3,10) occ(31,3,5) occ(40,3,6) occ(48,3,8) occ(53,3,2) occ(54,3,9) occ(61,3,4) occ(5,4,5) occ(10,4,6) occ(15,4,8) occ(29,4,3) occ(36,4,7) occ(37,4,1) occ(46,4,10) occ(63,4,2) occ(80,4,9) occ(4,5,2) occ(7,5,7) occ(11,5,9) occ(17,5,6) occ(34,5,5) occ(39,5,3) occ(51,5,1) occ(56,5,8) occ(65,5,4) occ(76,5,10) occ(8,6,5) occ(12,6,7) occ(19,6,4) occ(20,6,3) occ(27,6,2) occ(41,6,1) occ(58,6,6) occ(78,6,8) occ(81,6,9) occ(6,7,3) occ(9,7,8) occ(22,7,1) occ(32,7,6) occ(49,7,2) occ(60,7,4) occ(67,7,5) occ(74,7,9) occ(79,7,7) occ(14,8,6) occ(18,8,4) occ(21,8,3) occ(25,8,1) occ(30,8,8) occ(43,8,2) occ(68,8,7) occ(77,8,9) occ(83,8,10) occ(24,9,2) occ(28,9,6) occ(47,9,1) occ(62,9,5) occ(66,9,9) occ(69,9,4) occ(72,9,10) occ(73,9,8) occ(87,9,7) occ(16,10,5) occ(23,10,2) occ(26,10,4) occ(45,10,3) occ(64,10,7) occ(70,10,8) occ(71,10,6) occ(75,10,10) occ(85,10,9)
Optimization: -88
Answer: 15
occ(1,3,7) occ(1,2,1) occ(1,7,10) occ(1,1,6) occ(1,9,3) occ(1,8,5) occ(1,4,4) occ(2,3,1) occ(3,3,3) coverage(89) occ(47,1,9) occ(51,1,7) occ(55,1,3) occ(60,1,10) occ(61,1,4) occ(65,1,8) occ(75,1,5) occ(79,1,1) occ(45,2,7) occ(53,2,5) occ(59,2,2) occ(62,2,8) occ(63,2,6) occ(67,2,10) occ(77,2,3) occ(83,2,4) occ(43,3,5) occ(49,3,8) occ(57,3,4) occ(58,3,9) occ(64,3,10) occ(73,3,6) occ(81,3,2) occ(5,4,5) occ(17,4,7) occ(30,4,6) occ(39,4,2) occ(54,4,8) occ(69,4,9) occ(85,4,3) occ(88,4,1) occ(4,5,2) occ(7,5,3) occ(11,5,1) occ(15,5,5) occ(32,5,8) occ(41,5,4) occ(52,5,6) occ(56,5,10) occ(66,5,9) occ(71,5,7) occ(13,6,3) occ(19,6,6) occ(23,6,8) occ(28,6,5) occ(34,6,10) occ(37,6,1) occ(48,6,9) occ(68,6,7) occ(86,6,2) occ(87,6,4) occ(6,7,1) occ(9,7,2) occ(16,7,4) occ(24,7,8) occ(25,7,6) occ(35,7,3) occ(50,7,7) occ(70,7,9) occ(78,7,5) occ(8,8,3) occ(14,8,2) occ(21,8,7) occ(26,8,6) occ(31,8,4) occ(36,8,9) occ(42,8,10) occ(46,8,8) occ(84,8,1) occ(10,9,1) occ(18,9,5) occ(22,9,9) occ(27,9,7) occ(33,9,2) occ(40,9,8) occ(72,9,10) occ(76,9,6) occ(80,9,4) occ(12,10,3) occ(20,10,7) occ(29,10,5) occ(38,10,10) occ(44,10,9) occ(74,10,8) occ(82,10,2)
Optimization: -89
Answer: 16
occ(1,3,7) occ(1,2,1) occ(1,7,10) occ(1,1,6) occ(1,9,3) occ(1,8,5) occ(1,4,4) occ(2,3,1) occ(3,3,3) coverage(90) occ(4,1,2) occ(21,1,10) occ(34,1,9) occ(52,1,8) occ(56,1,4) occ(70,1,7) occ(74,1,3) occ(75,1,5) occ(6,2,4) occ(23,2,8) occ(32,2,7) occ(50,2,10) occ(54,2,6) occ(68,2,9) occ(72,2,5) occ(77,2,3) occ(78,2,2) occ(8,3,2) occ(19,3,9) occ(36,3,10) occ(40,3,8) occ(58,3,5) occ(73,3,6) occ(76,3,4) occ(16,4,5) occ(25,4,7) occ(30,4,8) occ(42,4,6) occ(48,4,9) occ(66,4,10) occ(79,4,2) occ(80,4,1) occ(89,4,3) occ(5,5,4) occ(10,5,1) occ(17,5,8) occ(28,5,10) occ(38,5,9) occ(46,5,7) occ(60,5,6) occ(71,5,5) occ(82,5,3) occ(14,6,4) occ(15,6,10) occ(18,6,6) occ(27,6,8) occ(44,6,5) occ(45,6,7) occ(64,6,9) occ(69,6,3) occ(81,6,1) occ(87,6,2) occ(7,7,5) occ(12,7,2) occ(20,7,8) occ(26,7,9) occ(29,7,6) occ(62,7,7) occ(67,7,1) occ(83,7,3) occ(84,7,4) occ(13,8,9) occ(24,8,7) occ(35,8,4) occ(43,8,6) occ(47,8,8) occ(51,8,10) occ(61,8,3) occ(85,8,1) occ(86,8,2) occ(9,9,6) occ(22,9,9) occ(31,9,7) occ(39,9,5) occ(53,9,8) occ(57,9,4) occ(65,9,2) occ(11,10,8) occ(33,10,5) occ(37,10,3) occ(41,10,7) occ(49,10,9) occ(55,10,6) occ(59,10,2) occ(63,10,4) occ(88,10,1)
Optimization: -90
Answer: 17
occ(1,3,7) occ(1,2,1) occ(1,7,10) occ(1,1,6) occ(1,9,3) occ(1,8,5) occ(1,4,4) occ(2,3,1) occ(3,3,3) coverage(91) occ(49,1,8) occ(53,1,4) occ(59,1,1) occ(63,1,3) occ(79,1,9) occ(89,1,2) occ(90,1,5) occ(24,2,9) occ(47,2,10) occ(51,2,6) occ(57,2,3) occ(62,2,2) occ(65,2,5) occ(83,2,8) occ(87,2,4) occ(88,2,7) occ(55,3,5) occ(60,3,4) occ(61,3,2) occ(77,3,8) occ(81,3,10) occ(85,3,6) occ(86,3,9) occ(22,4,8) occ(26,4,10) occ(41,4,5) occ(45,4,9) occ(52,4,1) occ(58,4,2) occ(64,4,3) occ(67,4,6) occ(73,4,7) occ(4,5,2) occ(5,5,4) occ(20,5,6) occ(21,5,8) occ(43,5,7) occ(54,5,3) occ(66,5,1) occ(71,5,5) occ(75,5,9) occ(84,5,10) occ(17,6,5) occ(18,6,4) occ(28,6,9) occ(39,6,6) occ(50,6,2) occ(56,6,1) occ(68,6,3) occ(69,6,7) occ(82,6,8) occ(6,7,1) occ(7,7,5) occ(15,7,3) occ(16,7,2) occ(19,7,7) occ(23,7,9) occ(32,7,8) occ(40,7,4) occ(80,7,6) occ(8,8,3) occ(29,8,9) occ(30,8,10) occ(37,8,7) occ(38,8,6) occ(42,8,2) occ(48,8,1) occ(70,8,4) occ(78,8,8) occ(9,9,6) occ(10,9,5) occ(13,9,2) occ(14,9,1) occ(25,9,10) occ(33,9,8) occ(34,9,9) occ(44,9,4) occ(74,9,7) occ(11,10,4) occ(12,10,3) occ(27,10,8) occ(31,10,10) occ(35,10,6) occ(36,10,7) occ(46,10,2) occ(72,10,5) occ(76,10,9)
Optimization: -91
Answer: 18
occ(1,3,7) occ(1,2,1) occ(1,7,10) occ(1,1,6) occ(1,9,3) occ(1,8,5) occ(1,4,4) occ(2,3,1) occ(3,3,3) coverage(92) occ(4,1,2) occ(65,1,10) occ(66,1,1) occ(69,1,8) occ(70,1,3) occ(73,1,4) occ(74,1,7) occ(78,1,5) occ(82,1,9) occ(6,2,4) occ(37,2,9) occ(63,2,8) occ(64,2,3) occ(71,2,6) occ(72,2,5) occ(75,2,2) occ(80,2,7) occ(86,2,10) occ(13,3,4) occ(33,3,10) occ(62,3,5) occ(67,3,9) occ(68,3,2) occ(76,3,6) occ(84,3,8) occ(5,4,5) occ(8,4,3) occ(11,4,6) occ(15,4,2) occ(35,4,8) occ(39,4,10) occ(61,4,7) occ(77,4,1) occ(88,4,9) occ(9,5,4) occ(10,5,1) occ(14,5,3) occ(28,5,2) occ(31,5,9) occ(41,5,8) occ(47,5,7) occ(56,5,10) occ(59,5,5) occ(60,5,6) occ(7,6,6) occ(16,6,1) occ(17,6,3) occ(29,6,7) occ(30,6,4) occ(45,6,5) occ(49,6,9) occ(58,6,8) occ(79,6,2) occ(90,6,10) occ(12,7,2) occ(19,7,1) occ(26,7,3) occ(27,7,5) occ(43,7,7) occ(54,7,9) occ(57,7,6) occ(81,7,4) occ(89,7,8) occ(18,8,2) occ(24,8,1) occ(32,8,3) occ(38,8,4) occ(44,8,9) occ(48,8,7) occ(51,8,10) occ(55,8,8) occ(91,8,6) occ(20,9,4) occ(21,9,2) occ(25,9,6) occ(34,9,1) occ(42,9,7) occ(52,9,8) occ(83,9,5) occ(87,9,9) occ(22,10,2) occ(23,10,4) occ(36,10,3) occ(40,10,5) occ(46,10,8) occ(50,10,6) occ(53,10,9) occ(85,10,7)
Optimization: -92
*** Info : (clingo): INTERRUPTED by signal!
SATISFIABLE

TIME LIMIT   : 1
Models       : 18+
  Optimum    : unknown
Optimization : -92
Calls        : 1
Time         : 300.000s (Solving: 298.55s 1st Model: 0.00s Unsat: 0.00s)
CPU Time     : 300.001s
